; DUP1 DUP1 SWAP3 SSTORE POP SWAP1 => DUP1 SWAP3 SWAP2 SSTORE
(set-option :produce-proofs true)
; 
(set-info :status unknown)
(declare-fun storage_t ((_ BitVec 256) (_ BitVec 256) (_ BitVec 256) (_ BitVec 256) Int (_ BitVec 256)) (_ BitVec 256))
(declare-fun storage_s ((_ BitVec 256) (_ BitVec 256) (_ BitVec 256) (_ BitVec 256) Int (_ BitVec 256)) (_ BitVec 256))
(declare-fun exc_halt_t (Int) Bool)
(declare-fun exc_halt_s (Int) Bool)
(declare-fun stack_t ((_ BitVec 256) (_ BitVec 256) (_ BitVec 256) (_ BitVec 256) Int (_ BitVec 6)) (_ BitVec 256))
(declare-fun stack_s ((_ BitVec 256) (_ BitVec 256) (_ BitVec 256) (_ BitVec 256) Int (_ BitVec 6)) (_ BitVec 256))
(declare-fun sc_t (Int) (_ BitVec 6))
(declare-fun sc_s (Int) (_ BitVec 6))
(declare-fun used_gas_t ((_ BitVec 256) (_ BitVec 256) (_ BitVec 256) (_ BitVec 256) Int) Int)
(declare-fun used_gas_s ((_ BitVec 256) (_ BitVec 256) (_ BitVec 256) (_ BitVec 256) Int) Int)
(assert
 (exists ((x_0 (_ BitVec 256)) (x_1 (_ BitVec 256)) (x_2 (_ BitVec 256)) (x_SSTORE_0 (_ BitVec 256)) )(let (($x3224 (forall ((w (_ BitVec 256)) )(let ((?x3252 (storage_t x_0 x_1 x_2 x_SSTORE_0 4 w)))
 (let ((?x551 (storage_s x_0 x_1 x_2 x_SSTORE_0 6 w)))
 (= ?x551 ?x3252))))
 ))
 (let (($x3723 (exc_halt_t 4)))
 (let (($x772 (exc_halt_s 6)))
 (let (($x8333 (= $x772 $x3723)))
 (let (($x3136 (forall ((n (_ BitVec 6)) )(let ((?x604 (stack_t x_0 x_1 x_2 x_SSTORE_0 4 n)))
 (let ((?x1910 (stack_s x_0 x_1 x_2 x_SSTORE_0 6 n)))
 (let (($x3566 (= ?x1910 ?x604)))
 (or (bvsle (sc_t 4) n) $x3566)))))
 ))
 (let ((?x3757 (sc_t 4)))
 (let ((?x926 (sc_s 6)))
 (let (($x10850 (= ?x926 ?x3757)))
 (let ((?x9380 (used_gas_t x_0 x_1 x_2 x_SSTORE_0 0)))
 (let ((?x8529 (used_gas_s x_0 x_1 x_2 x_SSTORE_0 0)))
 (let (($x8841 (= ?x8529 ?x9380)))
 (let (($x2251 (forall ((w (_ BitVec 256)) )(let ((?x2376 (storage_t x_0 x_1 x_2 x_SSTORE_0 0 w)))
 (let ((?x9274 (storage_s x_0 x_1 x_2 x_SSTORE_0 0 w)))
 (= ?x9274 ?x2376))))
 ))
 (let (($x56 (exc_halt_t 0)))
 (let (($x57 (exc_halt_s 0)))
 (let (($x58 (= $x57 $x56)))
 (let (($x7648 (forall ((n (_ BitVec 6)) )(let ((?x9674 (stack_t x_0 x_1 x_2 x_SSTORE_0 0 n)))
 (let ((?x2310 (stack_s x_0 x_1 x_2 x_SSTORE_0 0 n)))
 (let (($x5262 (= ?x2310 ?x9674)))
 (let ((?x63 (sc_t 0)))
 (let (($x4577 (bvsle ?x63 n)))
 (or $x4577 $x5262)))))))
 ))
 (let ((?x63 (sc_t 0)))
 (let ((?x72 (sc_s 0)))
 (let (($x73 (= ?x72 ?x63)))
 (let (($x353 (= $x3723 (or (exc_halt_t 3) (not (bvsle (_ bv0 6) (bvadd (_ bv62 6) (sc_t 3))))))))
 (let (($x7573 (forall ((n (_ BitVec 6)) )(let ((?x8424 (stack_t x_0 x_1 x_2 x_SSTORE_0 3 n)))
 (let ((?x604 (stack_t x_0 x_1 x_2 x_SSTORE_0 4 n)))
 (or (= ?x604 ?x8424) (bvsle (bvadd (_ bv62 6) (sc_t 3)) n)))))
 ))
 (let ((?x2012 (sc_t 3)))
 (let ((?x9366 (bvadd (_ bv62 6) ?x2012)))
 (let ((?x2533 (stack_t x_0 x_1 x_2 x_SSTORE_0 3 ?x9366)))
 (let (($x7748 (= ?x2533 (_ bv0 256))))
 (let ((?x6604 (bvadd (_ bv63 6) ?x2012)))
 (let ((?x10313 (stack_t x_0 x_1 x_2 x_SSTORE_0 3 ?x6604)))
 (let ((?x1470 (ite (= (storage_t x_0 x_1 x_2 x_SSTORE_0 3 ?x10313) (_ bv0 256)) (ite $x7748 5000 20000) (ite $x7748 (- 10000) 5000))))
 (let ((?x739 (used_gas_t x_0 x_1 x_2 x_SSTORE_0 3)))
 (let (($x3167 (forall ((w (_ BitVec 256)) )(let ((?x5886 (storage_t x_0 x_1 x_2 x_SSTORE_0 3 w)))
 (let (($x2862 (= w (stack_t x_0 x_1 x_2 x_SSTORE_0 3 (bvadd (_ bv63 6) (sc_t 3))))))
 (let ((?x4230 (ite $x2862 (stack_t x_0 x_1 x_2 x_SSTORE_0 3 (bvadd (_ bv62 6) (sc_t 3))) ?x5886)))
 (let ((?x3252 (storage_t x_0 x_1 x_2 x_SSTORE_0 4 w)))
 (= ?x3252 ?x4230))))))
 ))
 (let (($x10336 (exc_halt_t 3)))
 (let (($x7605 (= $x10336 (or (exc_halt_t 2) (not (bvsle (_ bv0 6) (bvadd (_ bv61 6) (sc_t 2))))))))
 (let (($x1676 (forall ((w (_ BitVec 256)) )(let ((?x3074 (storage_t x_0 x_1 x_2 x_SSTORE_0 2 w)))
 (let ((?x5886 (storage_t x_0 x_1 x_2 x_SSTORE_0 3 w)))
 (= ?x5886 ?x3074))))
 ))
 (let (($x8362 (forall ((n (_ BitVec 6)) )(let ((?x10815 (stack_t x_0 x_1 x_2 x_SSTORE_0 2 n)))
 (let ((?x8424 (stack_t x_0 x_1 x_2 x_SSTORE_0 3 n)))
 (or (bvsle (bvadd (_ bv61 6) (sc_t 2)) n) (= ?x8424 ?x10815)))))
 ))
 (let ((?x4056 (sc_t 2)))
 (let (($x2424 (= ?x2012 ?x4056)))
 (let ((?x1385 (bvadd (_ bv63 6) ?x4056)))
 (let ((?x2129 (stack_t x_0 x_1 x_2 x_SSTORE_0 2 ?x1385)))
 (let (($x903 (exc_halt_t 2)))
 (let (($x8564 (= $x903 (or (exc_halt_t 1) (not (bvsle (_ bv0 6) (bvadd (_ bv60 6) (sc_t 1))))))))
 (let (($x814 (forall ((w (_ BitVec 256)) )(let ((?x1284 (storage_t x_0 x_1 x_2 x_SSTORE_0 1 w)))
 (let ((?x3074 (storage_t x_0 x_1 x_2 x_SSTORE_0 2 w)))
 (= ?x3074 ?x1284))))
 ))
 (let (($x8679 (forall ((n (_ BitVec 6)) )(let ((?x7636 (stack_t x_0 x_1 x_2 x_SSTORE_0 1 n)))
 (let ((?x10815 (stack_t x_0 x_1 x_2 x_SSTORE_0 2 n)))
 (or (bvsle (bvadd (_ bv60 6) (sc_t 1)) n) (= ?x10815 ?x7636)))))
 ))
 (let ((?x2115 (used_gas_t x_0 x_1 x_2 x_SSTORE_0 2)))
 (let ((?x7880 (stack_t x_0 x_1 x_2 x_SSTORE_0 2 (bvadd (_ bv62 6) ?x4056))))
 (let (($x4182 (= ?x7880 (stack_t x_0 x_1 x_2 x_SSTORE_0 1 (bvadd (_ bv62 6) (sc_t 1))))))
 (let ((?x4165 (bvadd (_ bv61 6) ?x4056)))
 (let ((?x3037 (stack_t x_0 x_1 x_2 x_SSTORE_0 2 ?x4165)))
 (let (($x2369 (= ?x3037 (stack_t x_0 x_1 x_2 x_SSTORE_0 1 (bvadd (_ bv61 6) (sc_t 1))))))
 (let ((?x4023 (sc_t 1)))
 (let ((?x5283 (bvadd (_ bv63 6) ?x4023)))
 (let ((?x6213 (stack_t x_0 x_1 x_2 x_SSTORE_0 1 ?x5283)))
 (let (($x5637 (not (= ((_ extract 6 6) (bvadd (_ bv1 7) (concat (_ bv0 1) ?x63))) (_ bv0 1)))))
 (let (($x1920 (exc_halt_t 1)))
 (let (($x132 (= $x1920 (or $x56 (not (bvsle (_ bv0 6) (bvadd (_ bv63 6) ?x63))) $x5637))))
 (let (($x7652 (forall ((w (_ BitVec 256)) )(let ((?x2376 (storage_t x_0 x_1 x_2 x_SSTORE_0 0 w)))
 (let ((?x1284 (storage_t x_0 x_1 x_2 x_SSTORE_0 1 w)))
 (= ?x1284 ?x2376))))
 ))
 (let (($x8065 (forall ((n (_ BitVec 6)) )(let ((?x63 (sc_t 0)))
 (let ((?x6489 (bvadd (_ bv63 6) ?x63)))
 (let (($x7765 (bvsle ?x6489 n)))
 (let ((?x9674 (stack_t x_0 x_1 x_2 x_SSTORE_0 0 n)))
 (let ((?x7636 (stack_t x_0 x_1 x_2 x_SSTORE_0 1 n)))
 (or (= ?x7636 ?x9674) $x7765)))))))
 ))
 (let (($x245 (= ?x4023 (bvadd (_ bv1 6) ?x63))))
 (let ((?x6489 (bvadd (_ bv63 6) ?x63)))
 (let ((?x2865 (stack_t x_0 x_1 x_2 x_SSTORE_0 0 ?x6489)))
 (let (($x1553 (= $x772 (or (exc_halt_s 5) (not (bvsle (_ bv0 6) (bvadd (_ bv62 6) (sc_s 5))))))))
 (let (($x1352 (forall ((w (_ BitVec 256)) )(let ((?x10174 (storage_s x_0 x_1 x_2 x_SSTORE_0 5 w)))
 (let ((?x551 (storage_s x_0 x_1 x_2 x_SSTORE_0 6 w)))
 (= ?x551 ?x10174))))
 ))
 (let (($x8267 (forall ((n (_ BitVec 6)) )(let ((?x2242 (stack_s x_0 x_1 x_2 x_SSTORE_0 5 n)))
 (let ((?x1910 (stack_s x_0 x_1 x_2 x_SSTORE_0 6 n)))
 (or (= ?x1910 ?x2242) (bvsle (bvadd (_ bv62 6) (sc_s 5)) n)))))
 ))
 (let (($x8794 (= (used_gas_s x_0 x_1 x_2 x_SSTORE_0 6) (+ 3 (used_gas_s x_0 x_1 x_2 x_SSTORE_0 5)))))
 (let (($x1894 (= (stack_s x_0 x_1 x_2 x_SSTORE_0 6 (bvadd (_ bv62 6) ?x926)) (stack_s x_0 x_1 x_2 x_SSTORE_0 5 (bvadd (_ bv63 6) (sc_s 5))))))
 (let (($x2016 (= (stack_s x_0 x_1 x_2 x_SSTORE_0 6 (bvadd (_ bv63 6) ?x926)) (stack_s x_0 x_1 x_2 x_SSTORE_0 5 (bvadd (_ bv62 6) (sc_s 5))))))
 (let (($x3979 (exc_halt_s 5)))
 (let (($x1810 (= $x3979 (or (exc_halt_s 4) (not (bvsle (_ bv0 6) (bvadd (_ bv63 6) (sc_s 4))))))))
 (let (($x79 (forall ((w (_ BitVec 256)) )(let ((?x4426 (storage_s x_0 x_1 x_2 x_SSTORE_0 4 w)))
 (let ((?x10174 (storage_s x_0 x_1 x_2 x_SSTORE_0 5 w)))
 (= ?x10174 ?x4426))))
 ))
 (let (($x5038 (forall ((n (_ BitVec 6)) )(let ((?x4305 (sc_s 4)))
 (let ((?x1489 (bvadd (_ bv63 6) ?x4305)))
 (let (($x9956 (bvsle ?x1489 n)))
 (let ((?x4694 (stack_s x_0 x_1 x_2 x_SSTORE_0 4 n)))
 (let ((?x2242 (stack_s x_0 x_1 x_2 x_SSTORE_0 5 n)))
 (or (= ?x2242 ?x4694) $x9956)))))))
 ))
 (let ((?x4305 (sc_s 4)))
 (let ((?x1489 (bvadd (_ bv63 6) ?x4305)))
 (let ((?x805 (sc_s 5)))
 (let (($x6499 (= ?x805 ?x1489)))
 (let ((?x6202 (used_gas_s x_0 x_1 x_2 x_SSTORE_0 5)))
 (let (($x64 (exc_halt_s 4)))
 (let (($x3011 (= $x64 (or (exc_halt_s 3) (not (bvsle (_ bv0 6) (bvadd (_ bv62 6) (sc_s 3))))))))
 (let (($x8281 (forall ((n (_ BitVec 6)) )(let ((?x1756 (stack_s x_0 x_1 x_2 x_SSTORE_0 3 n)))
 (let ((?x4694 (stack_s x_0 x_1 x_2 x_SSTORE_0 4 n)))
 (let ((?x275 (sc_s 3)))
 (let ((?x9443 (bvadd (_ bv62 6) ?x275)))
 (let (($x4592 (bvsle ?x9443 n)))
 (or $x4592 (= ?x4694 ?x1756))))))))
 ))
 (let ((?x275 (sc_s 3)))
 (let ((?x9443 (bvadd (_ bv62 6) ?x275)))
 (let ((?x2143 (stack_s x_0 x_1 x_2 x_SSTORE_0 3 ?x9443)))
 (let (($x9447 (= ?x2143 (_ bv0 256))))
 (let ((?x403 (bvadd (_ bv63 6) ?x275)))
 (let ((?x9313 (stack_s x_0 x_1 x_2 x_SSTORE_0 3 ?x403)))
 (let ((?x10821 (ite (= (storage_s x_0 x_1 x_2 x_SSTORE_0 3 ?x9313) (_ bv0 256)) (ite $x9447 5000 20000) (ite $x9447 (- 10000) 5000))))
 (let ((?x8882 (used_gas_s x_0 x_1 x_2 x_SSTORE_0 3)))
 (let ((?x6900 (used_gas_s x_0 x_1 x_2 x_SSTORE_0 4)))
 (let (($x534 (forall ((w (_ BitVec 256)) )(let ((?x4671 (storage_s x_0 x_1 x_2 x_SSTORE_0 3 w)))
 (let (($x2817 (= w (stack_s x_0 x_1 x_2 x_SSTORE_0 3 (bvadd (_ bv63 6) (sc_s 3))))))
 (let ((?x9326 (ite $x2817 (stack_s x_0 x_1 x_2 x_SSTORE_0 3 (bvadd (_ bv62 6) (sc_s 3))) ?x4671)))
 (let ((?x4426 (storage_s x_0 x_1 x_2 x_SSTORE_0 4 w)))
 (= ?x4426 ?x9326))))))
 ))
 (let (($x292 (exc_halt_s 3)))
 (let (($x7535 (= $x292 (or (exc_halt_s 2) (not (bvsle (_ bv0 6) (bvadd (_ bv60 6) (sc_s 2))))))))
 (let (($x6808 (forall ((w (_ BitVec 256)) )(let ((?x5776 (storage_s x_0 x_1 x_2 x_SSTORE_0 2 w)))
 (let ((?x4671 (storage_s x_0 x_1 x_2 x_SSTORE_0 3 w)))
 (= ?x4671 ?x5776))))
 ))
 (let (($x985 (forall ((n (_ BitVec 6)) )(let ((?x218 (sc_s 2)))
 (let ((?x10975 (bvadd (_ bv60 6) ?x218)))
 (let (($x9456 (bvsle ?x10975 n)))
 (let ((?x2150 (stack_s x_0 x_1 x_2 x_SSTORE_0 2 n)))
 (let ((?x1756 (stack_s x_0 x_1 x_2 x_SSTORE_0 3 n)))
 (or (= ?x1756 ?x2150) $x9456)))))))
 ))
 (let ((?x218 (sc_s 2)))
 (let (($x1374 (= ?x275 ?x218)))
 (let (($x452 (= (stack_s x_0 x_1 x_2 x_SSTORE_0 3 (bvadd (_ bv61 6) ?x275)) (stack_s x_0 x_1 x_2 x_SSTORE_0 2 (bvadd (_ bv61 6) ?x218)))))
 (let ((?x712 (bvadd (_ bv63 6) ?x218)))
 (let ((?x8535 (stack_s x_0 x_1 x_2 x_SSTORE_0 2 ?x712)))
 (let (($x6305 (not (= ((_ extract 6 6) (bvadd (_ bv1 7) (concat (_ bv0 1) (sc_s 1)))) (_ bv0 1)))))
 (let (($x763 (not (bvsle (_ bv0 6) (bvadd (_ bv63 6) (sc_s 1))))))
 (let (($x189 (exc_halt_s 1)))
 (let (($x247 (exc_halt_s 2)))
 (let (($x9540 (forall ((w (_ BitVec 256)) )(let ((?x4713 (storage_s x_0 x_1 x_2 x_SSTORE_0 1 w)))
 (let ((?x5776 (storage_s x_0 x_1 x_2 x_SSTORE_0 2 w)))
 (= ?x5776 ?x4713))))
 ))
 (let (($x3683 (forall ((n (_ BitVec 6)) )(let ((?x8322 (stack_s x_0 x_1 x_2 x_SSTORE_0 1 n)))
 (let ((?x2150 (stack_s x_0 x_1 x_2 x_SSTORE_0 2 n)))
 (let ((?x154 (sc_s 1)))
 (let ((?x1435 (bvadd (_ bv63 6) ?x154)))
 (let (($x3626 (bvsle ?x1435 n)))
 (or $x3626 (= ?x2150 ?x8322))))))))
 ))
 (let (($x2153 (= ?x218 (bvadd (_ bv1 6) (sc_s 1)))))
 (let ((?x6536 (used_gas_s x_0 x_1 x_2 x_SSTORE_0 2)))
 (let ((?x154 (sc_s 1)))
 (let ((?x1435 (bvadd (_ bv63 6) ?x154)))
 (let ((?x2541 (stack_s x_0 x_1 x_2 x_SSTORE_0 1 ?x1435)))
 (let (($x8045 (not (= ((_ extract 6 6) (bvadd (_ bv1 7) (concat (_ bv0 1) ?x72))) (_ bv0 1)))))
 (let (($x3367 (forall ((w (_ BitVec 256)) )(let ((?x9274 (storage_s x_0 x_1 x_2 x_SSTORE_0 0 w)))
 (let ((?x4713 (storage_s x_0 x_1 x_2 x_SSTORE_0 1 w)))
 (= ?x4713 ?x9274))))
 ))
 (let (($x5447 (forall ((n (_ BitVec 6)) )(let ((?x2310 (stack_s x_0 x_1 x_2 x_SSTORE_0 0 n)))
 (let ((?x8322 (stack_s x_0 x_1 x_2 x_SSTORE_0 1 n)))
 (or (bvsle (bvadd (_ bv63 6) (sc_s 0)) n) (= ?x8322 ?x2310)))))
 ))
 (let (($x3745 (= ?x154 (bvadd (_ bv1 6) ?x72))))
 (let ((?x10280 (bvadd (_ bv63 6) ?x72)))
 (let ((?x4288 (stack_s x_0 x_1 x_2 x_SSTORE_0 0 ?x10280)))
 (let (($x4681 (forall ((w (_ BitVec 256)) )(let (($x2817 (= w (stack_s x_0 x_1 x_2 x_SSTORE_0 3 (bvadd (_ bv63 6) (sc_s 3))))))
 (let ((?x9274 (storage_s x_0 x_1 x_2 x_SSTORE_0 0 w)))
 (= ?x9274 (ite $x2817 x_SSTORE_0 (_ bv0 256))))))
 ))
 (let (($x7684 (= ?x8529 0)))
 (let (($x5252 (not $x57)))
 (let (($x2846 (= (stack_s x_0 x_1 x_2 x_SSTORE_0 0 (_ bv2 6)) x_2)))
 (let (($x3380 (= (stack_s x_0 x_1 x_2 x_SSTORE_0 0 (_ bv1 6)) x_1)))
 (let (($x2428 (= (stack_s x_0 x_1 x_2 x_SSTORE_0 0 (_ bv0 6)) x_0)))
 (let (($x4364 (= ?x72 (_ bv3 6))))
 (and $x4364 $x2428 $x3380 $x2846 $x5252 $x7684 $x4681 (= ?x2541 ?x4288) (= (stack_s x_0 x_1 x_2 x_SSTORE_0 1 ?x10280) ?x4288) (= (used_gas_s x_0 x_1 x_2 x_SSTORE_0 1) (+ 3 ?x8529)) $x3745 $x5447 $x3367 (= $x189 (or $x57 (not (bvsle (_ bv0 6) ?x10280)) $x8045)) (= ?x8535 ?x2541) (= (stack_s x_0 x_1 x_2 x_SSTORE_0 2 ?x1435) ?x2541) (= ?x6536 (+ 3 (used_gas_s x_0 x_1 x_2 x_SSTORE_0 1))) $x2153 $x3683 $x9540 (= $x247 (or $x189 $x763 $x6305)) (= ?x9313 (stack_s x_0 x_1 x_2 x_SSTORE_0 2 (bvadd (_ bv60 6) ?x218))) (= (stack_s x_0 x_1 x_2 x_SSTORE_0 3 (bvadd (_ bv60 6) ?x275)) ?x8535) $x452 (= ?x2143 (stack_s x_0 x_1 x_2 x_SSTORE_0 2 (bvadd (_ bv62 6) ?x218))) (= ?x8882 (+ 3 ?x6536)) $x1374 $x985 $x6808 $x7535 $x534 (= ?x6900 (+ ?x8882 ?x10821)) (= ?x4305 ?x9443) $x8281 $x3011 (= ?x6202 (+ 2 ?x6900)) $x6499 $x5038 $x79 $x1810 $x2016 $x1894 $x8794 (= ?x926 ?x805) $x8267 $x1352 $x1553 (= ?x6213 ?x2865) (= (stack_t x_0 x_1 x_2 x_SSTORE_0 1 ?x6489) ?x2865) (= (used_gas_t x_0 x_1 x_2 x_SSTORE_0 1) (+ 3 ?x9380)) $x245 $x8065 $x7652 $x132 (= ?x2129 (stack_t x_0 x_1 x_2 x_SSTORE_0 1 (bvadd (_ bv60 6) ?x4023))) (= (stack_t x_0 x_1 x_2 x_SSTORE_0 2 (bvadd (_ bv60 6) ?x4056)) ?x6213) $x2369 $x4182 (= ?x2115 (+ 3 (used_gas_t x_0 x_1 x_2 x_SSTORE_0 1))) (= ?x4056 ?x4023) $x8679 $x814 $x8564 (= ?x10313 ?x3037) (= (stack_t x_0 x_1 x_2 x_SSTORE_0 3 (bvadd (_ bv61 6) ?x2012)) ?x2129) (= ?x2533 ?x7880) (= ?x739 (+ 3 ?x2115)) $x2424 $x8362 $x1676 $x7605 $x3167 (= (used_gas_t x_0 x_1 x_2 x_SSTORE_0 4) (+ ?x739 ?x1470)) (= ?x3757 ?x9366) $x7573 $x353 $x73 $x7648 $x58 $x2251 $x8841 (not (and $x10850 $x3136 $x8333 $x3224))))))))))))))))))))))))))))))))))))))))))))))))))))))))))))))))))))))))))))))))))))))))))))))))))))))))))))))))))))))))))))
 )
(check-sat)
(get-proof)
